NAME : kroA100.9711.tour
COMMENT : Length = 9711
COMMENT : Found by LKH [Keld Helsgaun] Wed May 29 17:05:38 2013
TYPE : TOUR
DIMENSION : 20
TOUR_SECTION
67
8
92
75
66
18
24
84
47
98
77
83
29
48
78
96
82
44
73
69
-1
EOF
